100 1000
 392 392 391 390 390 388 386 382 381 380 380 380 375 375 375
 374 373 372 370 364 360 360 359 355 346 345 343 341 332 320
 317 317 314 313 311 308 307 305 303 296 294 290 283 282 280
 274 273 272 269 267 240 237 235 234 233 232 231 227 224 224
 223 217 215 213 213 212 210 206 205 205 204 204 203 202 201
 201 200 199 193 190 189 186 185 183 181 180 178 173 171 169
 169 169 168 166 166 166 165 165 164 163